20
76
10
72
75
8
83
43
7
31
99
11
65
0 1
0 3
0 7
0 8
0 9
0 13
0 14
0 15
0 17
1 3
1 5
1 8
1 9
1 12
1 16
1 19
2 5
2 7
2 11
3 7
3 14
3 15
3 19
4 5
4 6
4 10
4 12
4 15
4 17
5 6
5 8
5 13
5 15
5 16
5 17
5 18
5 19
6 8
6 12
6 13
6 15
6 17
6 18
6 19
7 11
7 14
8 10
8 16
8 17
8 19
9 12
9 13
9 14
9 15
9 16
9 17
9 19
10 11
10 12
10 18
10 19
11 17
11 18
12 13
12 15
12 16
12 17
12 19
13 14
13 16
14 16
14 19
15 19
16 17
16 18
17 19
10 12
11 1
7 13
9 5
6 18
15 8
14 0
4 19
16 3
17 2
